(set-logic ALL)
(declare-fun i1 () Int)
(declare-fun it1 () Int)
(declare-fun it2 () Int)
(declare-fun i2 () Int)
(declare-fun it3 () Int)
(declare-fun i3 () Int)
(declare-fun it4 () Int)
(declare-fun i4 () Int)
(declare-fun it5 () Int)
(declare-fun i5 () Int)
(declare-fun it6 () Int)
(declare-fun i6 () Int)
(declare-fun it7 () Int)
(declare-fun i7 () Int)
(declare-fun it68 () Int)
(declare-fun it69 () Int)
(declare-fun it70 () Int)
(declare-fun it71 () Int)
(declare-fun it72 () Int)
(declare-fun it73 () Int)
(declare-fun it74 () Int)
(declare-fun it128 () Int)
(declare-fun it129 () Int)
(declare-fun it130 () Int)
(declare-fun it131 () Int)
(declare-fun it132 () Int)
(declare-fun it133 () Int)
(declare-fun it134 () Int)
(declare-fun it137 () Int)
(declare-fun it138 () Int)
(declare-fun it139 () Int)
(declare-fun it140 () Int)
(declare-fun it141 () Int)
(declare-fun it142 () Int)
(declare-fun it143 () Int)
(declare-fun it117 () Int)
(assert (= (+ i1 (- 1)) 0))
(assert (= (+ it1 (- 2)) 0))
(assert (= (+ (* i2 (- 1)) it2 (- 1)) 0))
(assert (= (+ (* i3 (- 1)) it3) 0))
(assert (= (+ (* i4 (- 1)) it4) 0))
(assert (= (+ (* i5 (- 1)) it5) 0))
(assert (= (+ (* i6 (- 1)) it6) 0))
(assert (= (+ (* i7 (- 1)) it7) 0))
(assert (and (<= (+ (* it6 (- 1)) (- 5)) 0)
     (> it3 0)
     (= (+ it1 (- 2)) 0)
     (<= (+ it6 (- 5)) 0)))
(assert (= (+ it68 (- 3)) 0))
(assert (= (+ it69 (* it2 (- 1)) (- 2)) 0))
(assert (= (+ it70 (* it3 (- 1))) 0))
(assert (= (+ (* it3 (- 1)) it71) 0))
(assert (= (+ it72 (* it7 (- 1))) 0))
(assert (= (+ it73 (* it6 (- 1))) 0))
(assert (= (+ it74 (* it7 (- 1))) 0))
(assert (let ((a!1 (< (+ (exp it71 2) (exp it73 5) (+ 0 (* it72 (- 1)))) (+ 0 0))))
  (and (= (+ it68 (- 3)) 0) (> it71 0) a!1)))
(assert (= (+ it128 (- 3)) 0))
(assert (= (+ it129 (* it69 (- 1)) (- 1)) 0))
(assert (= (+ it130 (* it70 (- 1))) 0))
(assert (= (+ it131 (* it71 2)) 0))
(assert (let ((a!1 (+ (+ 0 (+ it132 (* it72 (- 3)))) (* (exp it73 3) (+ 0 2)))))
  (= a!1 (+ 0 0))))
(assert (= (+ it133 (* it73 (- 1))) 0))
(assert (= (+ it134 (* it74 (- 1))) 0))
(assert (let ((a!1 (< (+ (+ 0 (* it132 (- 1))) (exp it131 2) (exp it133 5)) (+ 0 0))))
  (and (= (+ it128 (- 3)) 0) a!1 (< it131 0))))
(assert (= (+ it137 (- 3)) 0))
(assert (= (+ (* it129 (- 1)) it138 (- 1)) 0))
(assert (= (+ it139 (* it130 (- 1))) 0))
(assert (= (+ it140 (* it131 2)) 0))
(assert (= (+ (* (exp it133 3) (+ 0 2)) (+ 0 (* it132 (- 3))) (+ 0 it141))
   (+ 0 0)))
(assert (= (+ it142 (* it133 (- 1))) 0))
(assert (= (+ it143 (* it134 (- 1))) 0))
(assert (let ((a!1 (* (* (exp 9 (+ it117 (- 1))) (+ 0 it141)) (+ 0 3)))
      (a!2 (* (* (exp it142 3) (exp 9 (+ it117 (- 1)))) (+ 0 (- 3))))
      (a!3 (* (exp (exp 4 (+ it117 (- 1))) (+ 0 2)) (exp it140 2)))
      (a!5 (* (* (exp it142 3) (exp 9 (+ it117 (- 1)))) (+ 0 (- 1))))
      (a!7 (> (+ (* (exp it142 3) (+ 0 (- 2)))
                 (* (exp it142 5) (+ 0 (- 1)))
                 (* (exp it140 2) (+ 0 (- 4)))
                 (+ 0 (* it141 3)))
              (+ 0 0)))
      (a!8 (> (+ (* (exp it142 5) (+ 0 (- 1)))
                 (* (exp it140 2) (+ 0 (- 1)))
                 (+ 0 it141))
              (+ 0 0))))
(let ((a!4 (> (+ a!1
                 a!2
                 (* a!3 (+ 0 (- 4)))
                 (exp it142 3)
                 (* (exp it142 5) (+ 0 (- 1))))
              (+ 0 0)))
      (a!6 (+ (* (exp 9 (+ it117 (- 1))) (+ 0 it141))
              a!5
              (* a!3 (+ 0 (- 1)))
              (exp it142 3)
              (* (exp it142 5) (+ 0 (- 1))))))
  (and (>= (+ it117 (- 1)) 0)
       (>= (+ (* it137 (- 1)) 3) 0)
       a!4
       (> a!6 (+ 0 0))
       a!7
       a!8
       (> it140 0)
       (>= (+ it137 (- 3)) 0)
       (> (* it140 2) 0)))))
(check-sat)
